Instance: E241-22k.dat
Class:  1
240 --- number of customers (no depot)
22 --- number of vehicles
490 --- number of items
Capacity - height - width of vehicles
   200     40     20
Node - x - y - demand  Readytime Duetime
  0.00    0.00   0.00   0.00 0       234.00       
  1.00    5.80   0.00  40.00  75.00   85.00       
  2.00    2.90   5.00  40.00  70.00   75.00       
  3.00   -2.90   5.00  40.00 159.00  170.00       
  4.00   -5.80   0.00  40.00 149.00  167.00       
  5.00   -2.90  -5.00  40.00 136.00  146.00       
  6.00    2.90  -5.00  40.00 103.00  122.00       
  7.00    8.70   5.00  40.00 133.00  149.00       
  8.00    0.00  10.00  40.00  51.00   69.00       
  9.00   -8.70   5.00  40.00  25.00   30.00       
 10.00   -8.70  -5.00  40.00 102.00  121.00       
 11.00    0.00 -10.00  40.00  31.00   37.00       
 12.00    8.70  -5.00  40.00 180.00  194.00       
 13.00    5.30   0.80  10.00 163.00  170.00       
 14.00    3.30   4.30  10.00 102.00  113.00       
 15.00    6.50  -1.30  10.00 171.00  177.00       
 16.00    7.20  -2.50  20.00 109.00  119.00       
 17.00    7.90  -3.80  10.00 120.00  136.00       
 18.00    6.50   1.30  10.00 186.00  202.00       
 19.00    7.20   2.50  20.00  76.00   89.00       
 20.00    7.90   3.80  10.00 176.00  192.00       
 21.00    2.00   5.00  10.00  68.00   86.00       
 22.00   -2.00   5.00  10.00  64.00   80.00       
 23.00    4.30   5.00  10.00 139.00  150.00       
 24.00    5.80   5.00  20.00  89.00   95.00       
 25.00    7.20   5.00  10.00  89.00  103.00       
 26.00    2.20   6.30  10.00 140.00  147.00       
 27.00    1.40   7.50  20.00 180.00  189.00       
 28.00    0.70   8.80  10.00 114.00  130.00       
 29.00   -3.30   4.30  10.00  46.00   51.00       
 30.00   -5.30   0.80  10.00  11.00   26.00       
 31.00   -2.20   6.30  10.00 132.00  142.00       
 32.00   -1.40   7.50  20.00  81.00   96.00       
 33.00   -0.70   8.80  10.00 167.00  172.00       
 34.00   -4.30   5.00  10.00 165.00  170.00       
 35.00   -5.80   5.00  20.00  90.00  105.00       
 36.00   -7.20   5.00  10.00 120.00  128.00       
 37.00   -5.30  -0.80  10.00 100.00  113.00       
 38.00   -3.30  -4.30  10.00 111.00  121.00       
 39.00   -6.50   1.30  10.00 135.00  150.00       
 40.00   -7.20   2.50  20.00  55.00   63.00       
 41.00   -7.90   3.80  10.00 196.00  209.00       
 42.00   -6.50  -1.30  10.00  35.00   49.00       
 43.00   -7.20  -2.50  20.00 109.00  120.00       
 44.00   -7.90  -3.80  10.00  13.00   24.00       
 45.00   -2.00  -5.00  10.00  50.00   60.00       
 46.00    2.00  -5.00  10.00  56.00   71.00       
 47.00   -4.30  -5.00  10.00 128.00  134.00       
 48.00   -5.80  -5.00  20.00  83.00   96.00       
 49.00   -7.20  -5.00  10.00 105.00  121.00       
 50.00   -2.20  -6.30  10.00 198.00  206.00       
 51.00   -1.40  -7.50  20.00 102.00  116.00       
 52.00   -0.70  -8.80  10.00  62.00   72.00       
 53.00    3.30  -4.30  10.00  10.00   21.00       
 54.00    5.30  -0.80  10.00 177.00  193.00       
 55.00    2.20  -6.30  10.00  40.00   47.00       
 56.00    1.40  -7.50  20.00 190.00  207.00       
 57.00    0.70  -8.80  10.00  74.00   81.00       
 58.00    4.30  -5.00  10.00 117.00  130.00       
 59.00    5.80  -5.00  20.00 160.00  178.00       
 60.00    7.20  -5.00  10.00 110.00  125.00       
 61.00    7.20   0.00  40.00 112.00  128.00       
 62.00    3.60   6.30  40.00  27.00   34.00       
 63.00   -3.60   6.30  40.00  58.00   69.00       
 64.00   -7.20   0.00  40.00  64.00   74.00       
 65.00   -3.60  -6.30  40.00 173.00  186.00       
 66.00    3.60  -6.30  40.00  19.00   27.00       
 67.00   10.80   6.30  40.00  57.00   62.00       
 68.00    0.00  12.50  40.00 128.00  142.00       
 69.00  -10.80   6.30  40.00 159.00  166.00       
 70.00  -10.80  -6.30  40.00 188.00  206.00       
 71.00    0.00 -12.50  40.00  57.00   62.00       
 72.00   10.80  -6.30  40.00 106.00  113.00       
 73.00    6.70   0.90  10.00 101.00  108.00       
 74.00    4.10   5.30  10.00 183.00  188.00       
 75.00    8.10  -1.60  10.00 171.00  178.00       
 76.00    9.00  -3.10  20.00 113.00  130.00       
 77.00    9.90  -4.70  10.00 169.00  181.00       
 78.00    8.10   1.60  10.00  43.00   48.00       
 79.00    9.00   3.10  20.00 181.00  187.00       
 80.00    9.90   4.70  10.00  90.00   97.00       
 81.00    2.50   6.30  10.00  75.00   86.00       
 82.00   -2.50   6.30  10.00 159.00  174.00       
 83.00    5.40   6.30  10.00  93.00  108.00       
 84.00    7.20   6.30  20.00  70.00   85.00       
 85.00    9.00   6.30  10.00 126.00  135.00       
 86.00    2.70   7.80  10.00  19.00   39.00       
 87.00    1.80   9.40  20.00 163.00  169.00       
 88.00    0.90  10.90  10.00  28.00   43.00       
 89.00   -4.10   5.30  10.00 186.00  196.00       
 90.00   -6.70   0.90  10.00  65.00   82.00       
 91.00   -2.70   7.80  10.00 143.00  162.00       
 92.00   -1.80   9.40  20.00 112.00  126.00       
 93.00   -0.90  10.90  10.00 115.00  132.00       
 94.00   -5.40   6.30  10.00  15.00   24.00       
 95.00   -7.20   6.30  20.00  93.00  102.00       
 96.00   -9.00   6.30  10.00 132.00  152.00       
 97.00   -6.70  -0.90  10.00 182.00  198.00       
 98.00   -4.10  -5.30  10.00  92.00  109.00       
 99.00   -8.10   1.60  10.00  70.00   81.00       
100.00   -9.00   3.10  20.00  32.00   48.00       
101.00   -9.90   4.70  10.00  69.00   74.00       
102.00   -8.10  -1.60  10.00  99.00  110.00       
103.00   -9.00  -3.10  20.00  85.00   97.00       
104.00   -9.90  -4.70  10.00 167.00  181.00       
105.00   -2.50  -6.30  10.00 125.00  144.00       
106.00    2.50  -6.30  10.00 108.00  113.00       
107.00   -5.40  -6.30  10.00  10.00   24.00       
108.00   -7.20  -6.30  20.00  22.00   29.00       
109.00   -9.00  -6.30  10.00  64.00   77.00       
110.00   -2.70  -7.80  10.00  24.00   30.00       
111.00   -1.80  -9.40  20.00 114.00  131.00       
112.00   -0.90 -10.90  10.00 128.00  145.00       
113.00    4.10  -5.30  10.00  14.00   33.00       
114.00    6.70  -0.90  10.00 107.00  119.00       
115.00    2.70  -7.80  10.00  15.00   34.00       
116.00    1.80  -9.40  20.00 177.00  189.00       
117.00    0.90 -10.90  10.00 112.00  124.00       
118.00    5.40  -6.30  10.00  26.00   42.00       
119.00    7.20  -6.30  20.00  67.00   86.00       
120.00    9.00  -6.30  10.00  43.00   63.00       
121.00    9.00   0.00  40.00  24.00   32.00       
122.00    4.50   7.80  40.00  57.00   75.00       
123.00   -4.50   7.80  40.00  57.00   73.00       
124.00   -9.00   0.00  40.00 144.00  149.00       
125.00   -4.50  -7.80  40.00  92.00  103.00       
126.00    4.50  -7.80  40.00  84.00  101.00       
127.00   13.50   7.80  40.00 139.00  156.00       
128.00    0.00  15.60  40.00  83.00   92.00       
129.00  -13.50   7.80  40.00 121.00  138.00       
130.00  -13.50  -7.80  40.00 162.00  171.00       
131.00    0.00 -15.60  40.00  53.00   59.00       
132.00   13.50  -7.80  40.00  96.00  112.00       
133.00    8.30   1.20  10.00  23.00   34.00       
134.00    5.20   6.60  10.00 175.00  186.00       
135.00   10.10  -2.00  10.00 116.00  132.00       
136.00   11.30  -3.90  20.00  72.00   90.00       
137.00   12.40  -5.90  10.00   2.00   21.00       
138.00   10.10   2.00  10.00 190.00  206.00       
139.00   11.30   3.90  20.00  71.00   90.00       
140.00   12.40   5.90  10.00  42.00   48.00       
141.00    3.20   7.80  10.00  82.00   99.00       
142.00   -3.20   7.80  10.00  33.00   49.00       
143.00    6.80   7.80  10.00 185.00  191.00       
144.00    9.00   7.80  20.00 112.00  120.00       
145.00   11.30   7.80  10.00 188.00  198.00       
146.00    3.40   9.80  10.00  95.00  104.00       
147.00    2.30  11.70  20.00  82.00   98.00       
148.00    1.10  13.70  10.00 179.00  198.00       
149.00   -5.20   6.60  10.00 105.00  115.00       
150.00   -8.30   1.20  10.00  93.00  102.00       
151.00   -3.40   9.80  10.00 160.00  174.00       
152.00   -2.30  11.70  20.00 202.00  207.00       
153.00   -1.10  13.70  10.00 166.00  171.00       
154.00   -6.80   7.80  10.00  23.00   42.00       
155.00   -9.00   7.80  20.00  65.00   81.00       
156.00  -11.30   7.80  10.00  53.00   68.00       
157.00   -8.30  -1.20  10.00 114.00  133.00       
158.00   -5.20  -6.60  10.00  21.00   34.00       
159.00  -10.10   2.00  10.00 174.00  193.00       
160.00  -11.30   3.90  20.00  77.00   85.00       
161.00  -12.40   5.90  10.00 168.00  173.00       
162.00  -10.10  -2.00  10.00 190.00  201.00       
163.00  -11.30  -3.90  20.00 115.00  130.00       
164.00  -12.40  -5.90  10.00  62.00   79.00       
165.00   -3.20  -7.80  10.00  85.00   99.00       
166.00    3.20  -7.80  10.00  67.00   75.00       
167.00   -6.80  -7.80  10.00  77.00   95.00       
168.00   -9.00  -7.80  20.00  77.00   88.00       
169.00  -11.30  -7.80  10.00  44.00   59.00       
170.00   -3.40  -9.80  10.00 127.00  136.00       
171.00   -2.30 -11.70  20.00  76.00   93.00       
172.00   -1.10 -13.70  10.00 170.00  180.00       
173.00    5.20  -6.60  10.00  59.00   75.00       
174.00    8.30  -1.20  10.00 163.00  183.00       
175.00    3.40  -9.80  10.00  60.00   66.00       
176.00    2.30 -11.70  20.00 126.00  141.00       
177.00    1.10 -13.70  10.00  98.00  108.00       
178.00    6.80  -7.80  10.00  27.00   47.00       
179.00    9.00  -7.80  20.00 157.00  174.00       
180.00   11.30  -7.80  10.00 154.00  165.00       
181.00   11.30   0.00  40.00  79.00   89.00       
182.00    5.60   9.80  40.00 159.00  169.00       
183.00   -5.60   9.80  40.00  91.00  100.00       
184.00  -11.30   0.00  40.00  70.00   84.00       
185.00   -5.60  -9.80  40.00  94.00  105.00       
186.00    5.60  -9.80  40.00 140.00  150.00       
187.00   16.90   9.80  40.00   6.00   22.00       
188.00    0.00  19.50  40.00 175.00  185.00       
189.00  -16.90   9.80  40.00 148.00  167.00       
190.00  -16.90  -9.80  40.00   4.00   21.00       
191.00    0.00 -19.50  40.00  15.00   33.00       
192.00   16.90  -9.80  40.00 156.00  176.00       
193.00   10.40   1.50  10.00 129.00  136.00       
194.00    6.50   8.30  10.00  41.00   48.00       
195.00   12.70  -2.40  10.00  77.00   96.00       
196.00   14.10  -4.90  20.00 108.00  119.00       
197.00   15.50  -7.30  10.00 170.00  181.00       
198.00   12.70   2.40  10.00  17.00   34.00       
199.00   14.10   4.90  20.00 142.00  149.00       
200.00   15.50   7.30  10.00  83.00   90.00       
201.00    3.90   9.80  10.00  38.00   57.00       
202.00   -3.90   9.80  10.00 182.00  191.00       
203.00    8.50   9.80  10.00 174.00  180.00       
204.00   11.30   9.80  20.00  79.00   85.00       
205.00   14.10   9.80  10.00  51.00   71.00       
206.00    4.20  12.20  10.00 172.00  179.00       
207.00    2.80  14.60  20.00  67.00   74.00       
208.00    1.40  17.10  10.00 172.00  183.00       
209.00   -6.50   8.30  10.00  82.00   96.00       
210.00  -10.40   1.50  10.00  90.00  104.00       
211.00   -4.20  12.20  10.00 162.00  182.00       
212.00   -2.80  14.60  20.00 176.00  190.00       
213.00   -1.40  17.10  10.00  67.00   78.00       
214.00   -8.50   9.80  10.00  31.00   48.00       
215.00  -11.30   9.80  20.00 134.00  145.00       
216.00  -14.10   9.80  10.00  94.00  107.00       
217.00  -10.40  -1.50  10.00 123.00  130.00       
218.00   -6.50  -8.30  10.00  26.00   45.00       
219.00  -12.70   2.40  10.00 148.00  161.00       
220.00  -14.10   4.90  20.00  78.00   89.00       
221.00  -15.50   7.30  10.00 193.00  201.00       
222.00  -12.70  -2.40  10.00 113.00  118.00       
223.00  -14.10  -4.90  20.00 105.00  112.00       
224.00  -15.50  -7.30  10.00  73.00   79.00       
225.00   -3.90  -9.80  10.00  96.00  101.00       
226.00    3.90  -9.80  10.00 160.00  177.00       
227.00   -8.50  -9.80  10.00 167.00  185.00       
228.00  -11.30  -9.80  20.00  61.00   71.00       
229.00  -14.10  -9.80  10.00  32.00   48.00       
230.00   -4.20 -12.20  10.00 157.00  177.00       
231.00   -2.80 -14.60  20.00 117.00  126.00       
232.00   -1.40 -17.10  10.00  53.00   59.00       
233.00    6.50  -8.30  10.00  40.00   52.00       
234.00   10.40  -1.50  10.00 119.00  134.00       
235.00    4.20 -12.20  10.00 147.00  165.00       
236.00    2.80 -14.60  20.00  28.00   41.00       
237.00    1.40 -17.10  10.00 186.00  201.00       
238.00    8.50  -9.80  10.00   4.00   22.00       
239.00   11.30  -9.80  20.00 184.00  203.00       
240.00   14.10  -9.80  10.00  72.00   78.00    
Node - number of items - h - w for each item
    0   0
    1   3    6   12   10    7   26    4
    2   2   14    8    6    8
    3   1   12    6
    4   2    8    9   10    6
    5   3   15    8   14    7   27    4
    6   3    8   13    7    8   10    6
    7   1   15    2
    8   3   10    7   29    3   26    3
    9   1   11    6
   10   3    8    8    6    6   20    2
   11   2    5   11   22    2
   12   3    6   11    9    5   24    3
   13   1   14    8
   14   1   28    3
   15   2    4   14    4   14
   16   2    8    7   10    6
   17   3    8   10   12    6   21    3
   18   3    7   13   10    7   12    6
   19   2    7   11   14    6
   20   2   12    8    6    7
   21   2    8    8   15    5
   22   1   20    2
   23   2    7    8   14    3
   24   1    5   12
   25   2   12    5   30    2
   26   1    7   13
   27   2    9    6   10    4
   28   2   12    5   21    2
   29   2    7   16   23    3
   30   1    8   11
   31   1   28    4
   32   2    7   11    8   10
   33   3    8    7    8    5   25    4
   34   3    5   14    8   12   31    4
   35   3   14    6    8    5   23    3
   36   2   16    8   12    6
   37   1   11    8
   38   2    9    7   28    2
   39   2   13    6   12    6
   40   3   15    7   14    3   13    2
   41   1   25    2
   42   3    7    7   15    3   22    2
   43   3   11    5   19    4   10    4
   44   2    6   16    4   12
   45   2    6    9   24    3
   46   2   20    3   26    2
   47   2   15    5   30    3
   48   3    8   15   14    6   21    3
   49   3    8    5   14    3   15    2
   50   1   22    4
   51   3   10    6   27    4   13    4
   52   3    5   12   17    3   27    2
   53   2    4   13    7    7
   54   1   15    7
   55   2    7    6   16    5
   56   2   10    8   16    7
   57   2   25    4   14    3
   58   1   18    3
   59   2    7   11   13    6
   60   2    5   14    5    9
   61   3    7   14    5   10   15    7
   62   2   10    5   16    3
   63   2    7   12   14    3
   64   2   14    6    6    6
   65   2    6    8   11    5
   66   2   10    6   15    3
   67   3   22    3   14    3   20    2
   68   3    6    8   16    7   11    7
   69   3    8   12    7    9   15    6
   70   3   14    5   18    3   13    2
   71   3   15    6   18    4   22    3
   72   1    5    7
   73   3    6   12    5    7   11    4
   74   1   12    5
   75   3   14    6   18    3   13    3
   76   2   13    5   12    5
   77   2   31    4   17    3
   78   1   14    6
   79   2    5   12   24    4
   80   1    7   15
   81   2    9    8   20    3
   82   1   20    3
   83   3   11    4   16    3   13    3
   84   1    9    7
   85   1   28    2
   86   2    5   13    8    7
   87   3    9    5   16    4   14    4
   88   2   10    6   17    4
   89   2   15    6   14    6
   90   1   31    4
   91   2    7   10    5    9
   92   1    5    8
   93   2    8    6   20    3
   94   2    6   13   22    3
   95   3    8   13   12    7   14    4
   96   1    8   12
   97   1   17    3
   98   2    8   12   13    6
   99   3   16    8    9    6   23    2
  100   3    7   10    7    9   14    5
  101   3    7   14   16    6   31    3
  102   1    6   10
  103   1   20    3
  104   3    4   11    7    8   25    4
  105   3   15    5   27    3   27    3
  106   3    8   10    7    8   15    6
  107   3    7    7   10    5   22    2
  108   1   13    2
  109   1    8   10
  110   1    4   12
  111   2    6   10    8    6
  112   1    8    9
  113   3   11    5   31    4   17    3
  114   2   15    3   23    2
  115   3    7   14    8    9    9    6
  116   2    6   10   14    2
  117   3    8   15   31    4   13    4
  118   1   12    3
  119   2   24    4   14    3
  120   1   18    3
  121   2    7   13    7    9
  122   1    8   12
  123   1   21    2
  124   1   12    6
  125   3    5   16    6    8    6    8
  126   2    5    7   11    5
  127   3    5   15   20    3   15    3
  128   1    6   13
  129   2    8   15   10    4
  130   3   16    5   10    5   10    5
  131   3    7   14    6   14    7   12
  132   2    8   11    4   11
  133   1   14    8
  134   2    7   10   15    4
  135   2   26    4   16    3
  136   2    6   13    4   10
  137   1   30    4
  138   2    5    9    8    6
  139   1    5   16
  140   2    4   13    5   10
  141   2    5    7   29    2
  142   3   15    7   13    7   15    6
  143   3    7   14   14    8   28    3
  144   2    4   12   25    2
  145   3    8    8   10    7   23    3
  146   1   16    6
  147   1   12    4
  148   2    8   15   14    4
  149   2   14    7   23    3
  150   1    6   12
  151   1   22    3
  152   3    7   14    4    8   30    4
  153   1   15    3
  154   3    9    6    8    6    8    6
  155   1    5   13
  156   2    7   13   16    2
  157   1   10    5
  158   3    8    8   15    7   12    4
  159   1    7    8
  160   1    6   15
  161   2    7   14   13    6
  162   1   11    8
  163   3   15    8    6    6   30    2
  164   3    7   14    9    7   11    4
  165   2    4   11   14    3
  166   3    8   15   13    5   15    4
  167   1    4    9
  168   2    7   10    9    4
  169   2   27    4   13    3
  170   3    7    8   29    4   31    2
  171   2   16    6   14    5
  172   2   11    6    8    6
  173   3    7   15   15    5   29    3
  174   1    4   15
  175   3    7   16    6   12    5   10
  176   2    5   14   10    5
  177   1    7   12
  178   1   15    5
  179   3   14    5   12    5   21    4
  180   2   10    7    8    7
  181   2    6    8   11    7
  182   1   14    7
  183   3    7   14   10    5   15    3
  184   2    6   12   30    4
  185   1    6   13
  186   2    7   11    8    6
  187   2    8   15   13    3
  188   2   13    7   16    4
  189   3    5   15    5   11   26    3
  190   2    7   16   19    3
  191   2    9    5   14    4
  192   3    9    8   20    3   17    3
  193   3   10    6   11    5   12    3
  194   2   15    7   14    4
  195   1    9    7
  196   1   10    8
  197   1   14    3
  198   2   15    8   17    3
  199   2   15    8   13    5
  200   1   17    3
  201   3   16    7    8    6   23    4
  202   1   12    5
  203   3   11    5   31    4   13    4
  204   3    4   15    5   10   20    3
  205   3   13    5   22    4   26    3
  206   1    5    7
  207   1    5   16
  208   2   32    3   16    3
  209   2   10    8   13    6
  210   3    7   15    8   10   29    3
  211   3   20    4   21    3   16    2
  212   3    5   13    6    7   30    3
  213   3    6   10   29    3   26    2
  214   2    6   14   25    2
  215   3    6   13    4    9    8    7
  216   3    4   12   13    5   25    2
  217   1   16    2
  218   2    6    9    7    8
  219   3   12    7    4    6   19    4
  220   2    6    8    9    5
  221   3    6   12   14    7   18    3
  222   2    6    6   18    4
  223   3    4    9   15    4   14    2
  224   2   26    4   23    3
  225   3   12    6   15    4   22    2
  226   1   12    5
  227   3   14    7    9    5   15    2
  228   3    7   13    7   10    6    8
  229   2   15    4   15    4
  230   3    6    6   22    4   27    2
  231   2   18    4   26    2
  232   3    7   11   25    4   20    3
  233   2   24    3   21    3
  234   1    7    8
  235   2    8   14   31    2
  236   3    6   10    5   10    5    9
  237   2    8    7   13    6
  238   1   15    6
  239   2   16    7   23    3
  240   1    9    8
   
